30
0   127   130
1   126   128
2   126   129
3   129   129
4   66   64
5   63   66
6   63   66
7   66   67
8   32   35
9   34   33
10   36   32
11   34   32
12   16   16
13   20   16
14   19   17
15   19   16
16   12   9
17   11   11
18   12   9
19   10   9
20   2   4
21   3   1
22   4   5
23   1   2
24   3   1
25   3   5
26   4   5
27   2   3
28   3   5
29   4   5
250
